Code/GIFT_SSB.mps
* Signature: 0x9ed5dc7b823d8ba4
NAME GIFT_SSBSSB
ROWS
 N  OBJ
 G  R0      
 G  R1      
 G  R2      
 G  R3      
 G  R4      
 G  R5      
 G  R6      
 G  R7      
 G  R8      
 G  R9      
 G  R10     
 G  R11     
 G  R12     
 G  R13     
 G  R14     
 G  R15     
 G  R16     
 G  R17     
 G  R18     
 G  R19     
 G  R20     
 G  R21     
 G  R22     
 G  R23     
 G  R24     
 G  R25     
 G  R26     
 G  R27     
 G  R28     
 G  R29     
 G  R30     
 G  R31     
 G  R32     
 G  R33     
 G  R34     
 G  R35     
 G  R36     
 G  R37     
 G  R38     
 G  R39     
 G  R40     
 G  R41     
 G  R42     
 G  R43     
 G  R44     
 G  R45     
 G  R46     
 G  R47     
 G  R48     
 G  R49     
 G  R50     
 G  R51     
 G  R52     
 G  R53     
 G  R54     
 G  R55     
 G  R56     
 G  R57     
 G  R58     
 G  R59     
 G  R60     
 G  R61     
 G  R62     
 G  R63     
 G  R64     
 G  R65     
 G  R66     
 G  R67     
 G  R68     
 G  R69     
 G  R70     
 G  R71     
 G  R72     
 G  R73     
 G  R74     
 G  R75     
 G  R76     
 G  R77     
 G  R78     
 G  R79     
 G  R80     
 G  R81     
 G  R82     
 G  R83     
 E  R84     
 E  R85     
 E  R86     
 E  R87     
 E  R88     
 E  R89     
 E  R90     
 E  R91     
 E  R92     
 E  R93     
 E  R94     
 E  R95     
 E  R96     
 E  R97     
 E  R98     
 E  R99     
 E  R100    
 E  R101    
 E  R102    
 E  R103    
 E  R104    
 E  R105    
 E  R106    
 E  R107    
 E  R108    
 E  R109    
 E  R110    
 E  R111    
 E  R112    
 E  R113    
 E  R114    
 E  R115    
 G  R116    
 G  R117    
 G  R118    
 G  R119    
 G  R120    
 G  R121    
 G  R122    
 G  R123    
 G  R124    
 G  R125    
 G  R126    
 G  R127    
 G  R128    
 G  R129    
 G  R130    
 G  R131    
 G  R132    
 G  R133    
 G  R134    
 G  R135    
 G  R136    
 G  R137    
 G  R138    
 G  R139    
 G  R140    
 G  R141    
 G  R142    
 G  R143    
 G  R144    
 G  R145    
 G  R146    
 G  R147    
 G  R148    
 G  R149    
 G  R150    
 G  R151    
 G  R152    
 G  R153    
 G  R154    
 G  R155    
 G  R156    
 G  R157    
 G  R158    
 G  R159    
 G  R160    
 G  R161    
 G  R162    
 G  R163    
 G  R164    
 G  R165    
 G  R166    
 G  R167    
 G  R168    
 G  R169    
 G  R170    
 G  R171    
 G  R172    
 G  R173    
 G  R174    
 G  R175    
 G  R176    
 G  R177    
 G  R178    
 G  R179    
 G  R180    
 G  R181    
 G  R182    
 G  R183    
 G  R184    
 G  R185    
 G  R186    
 G  R187    
 G  R188    
 G  R189    
 G  R190    
 G  R191    
 G  R192    
 G  R193    
 G  R194    
 G  R195    
 G  R196    
 G  R197    
 G  R198    
 G  R199    
COLUMNS
    MARKER    'MARKER'                 'INTORG'
    u0        R0        5
    u0        R1        -4
    u0        R2        2
    u0        R3        -2
    u0        R4        4
    u0        R6        2
    u0        R7        -1
    u0        R9        1
    u0        R11       -3
    u0        R12       -1
    u0        R14       -2
    u0        R15       1
    u0        R16       -2
    u0        R18       1
    u0        R20       2
    u1        R0        4
    u1        R1        -5
    u1        R2        1
    u1        R3        -1
    u1        R5        -1
    u1        R6        1
    u1        R9        1
    u1        R10       -1
    u1        R11       -2
    u1        R13       1
    u1        R14       -2
    u1        R16       -1
    u1        R18       1
    u1        R19       1
    u2        R0        10
    u2        R1        -3
    u2        R2        1
    u2        R3        -1
    u2        R4        3
    u2        R5        -1
    u2        R6        -1
    u2        R8        3
    u2        R11       -3
    u2        R12       -1
    u2        R13       1
    u2        R14       -1
    u2        R15       2
    u2        R16       -3
    u2        R17       -1
    u2        R18       1
    u2        R19       1
    u3        R0        4
    u3        R1        -3
    u3        R2        1
    u3        R3        -3
    u3        R4        2
    u3        R5        1
    u3        R6        -1
    u3        R7        1
    u3        R8        2
    u3        R10       -1
    u3        R11       -2
    u3        R12       -1
    u3        R14       -2
    u3        R15       2
    u3        R16       -1
    u3        R17       1
    u3        R19       -1
    u3        R20       1
    u4        R21       5
    u4        R22       -4
    u4        R23       2
    u4        R24       -2
    u4        R25       4
    u4        R27       2
    u4        R28       -1
    u4        R30       1
    u4        R32       -3
    u4        R33       -1
    u4        R35       -2
    u4        R36       1
    u4        R37       -2
    u4        R39       1
    u4        R41       2
    u5        R21       4
    u5        R22       -5
    u5        R23       1
    u5        R24       -1
    u5        R26       -1
    u5        R27       1
    u5        R30       1
    u5        R31       -1
    u5        R32       -2
    u5        R34       1
    u5        R35       -2
    u5        R37       -1
    u5        R39       1
    u5        R40       1
    u6        R21       10
    u6        R22       -3
    u6        R23       1
    u6        R24       -1
    u6        R25       3
    u6        R26       -1
    u6        R27       -1
    u6        R29       3
    u6        R32       -3
    u6        R33       -1
    u6        R34       1
    u6        R35       -1
    u6        R36       2
    u6        R37       -3
    u6        R38       -1
    u6        R39       1
    u6        R40       1
    u7        R21       4
    u7        R22       -3
    u7        R23       1
    u7        R24       -3
    u7        R25       2
    u7        R26       1
    u7        R27       -1
    u7        R28       1
    u7        R29       2
    u7        R31       -1
    u7        R32       -2
    u7        R33       -1
    u7        R35       -2
    u7        R36       2
    u7        R37       -1
    u7        R38       1
    u7        R40       -1
    u7        R41       1
    u8        R42       5
    u8        R43       -4
    u8        R44       2
    u8        R45       -2
    u8        R46       4
    u8        R48       2
    u8        R49       -1
    u8        R51       1
    u8        R53       -3
    u8        R54       -1
    u8        R56       -2
    u8        R57       1
    u8        R58       -2
    u8        R60       1
    u8        R62       2
    u9        R42       4
    u9        R43       -5
    u9        R44       1
    u9        R45       -1
    u9        R47       -1
    u9        R48       1
    u9        R51       1
    u9        R52       -1
    u9        R53       -2
    u9        R55       1
    u9        R56       -2
    u9        R58       -1
    u9        R60       1
    u9        R61       1
    u10       R42       10
    u10       R43       -3
    u10       R44       1
    u10       R45       -1
    u10       R46       3
    u10       R47       -1
    u10       R48       -1
    u10       R50       3
    u10       R53       -3
    u10       R54       -1
    u10       R55       1
    u10       R56       -1
    u10       R57       2
    u10       R58       -3
    u10       R59       -1
    u10       R60       1
    u10       R61       1
    u11       R42       4
    u11       R43       -3
    u11       R44       1
    u11       R45       -3
    u11       R46       2
    u11       R47       1
    u11       R48       -1
    u11       R49       1
    u11       R50       2
    u11       R52       -1
    u11       R53       -2
    u11       R54       -1
    u11       R56       -2
    u11       R57       2
    u11       R58       -1
    u11       R59       1
    u11       R61       -1
    u11       R62       1
    u12       R63       5
    u12       R64       -4
    u12       R65       2
    u12       R66       -2
    u12       R67       4
    u12       R69       2
    u12       R70       -1
    u12       R72       1
    u12       R74       -3
    u12       R75       -1
    u12       R77       -2
    u12       R78       1
    u12       R79       -2
    u12       R81       1
    u12       R83       2
    u13       R63       4
    u13       R64       -5
    u13       R65       1
    u13       R66       -1
    u13       R68       -1
    u13       R69       1
    u13       R72       1
    u13       R73       -1
    u13       R74       -2
    u13       R76       1
    u13       R77       -2
    u13       R79       -1
    u13       R81       1
    u13       R82       1
    u14       R63       10
    u14       R64       -3
    u14       R65       1
    u14       R66       -1
    u14       R67       3
    u14       R68       -1
    u14       R69       -1
    u14       R71       3
    u14       R74       -3
    u14       R75       -1
    u14       R76       1
    u14       R77       -1
    u14       R78       2
    u14       R79       -3
    u14       R80       -1
    u14       R81       1
    u14       R82       1
    u15       R63       4
    u15       R64       -3
    u15       R65       1
    u15       R66       -3
    u15       R67       2
    u15       R68       1
    u15       R69       -1
    u15       R70       1
    u15       R71       2
    u15       R73       -1
    u15       R74       -2
    u15       R75       -1
    u15       R77       -2
    u15       R78       2
    u15       R79       -1
    u15       R80       1
    u15       R82       -1
    u15       R83       1
    x0        R0        -3
    x0        R1        1
    x0        R3        3
    x0        R4        -5
    x0        R5        1
    x0        R6        1
    x0        R7        1
    x0        R8        -2
    x0        R9        -1
    x0        R10       1
    x0        R11       2
    x0        R12       -1
    x0        R13       -1
    x0        R15       -1
    x0        R16       -1
    x0        R17       1
    x0        R19       1
    x0        R20       -1
    x1        R0        -6
    x1        R1        1
    x1        R3        3
    x1        R4        -1
    x1        R5        1
    x1        R6        1
    x1        R8        -1
    x1        R9        -1
    x1        R11       -1
    x1        R12       1
    x1        R13       -1
    x1        R14       1
    x1        R15       -2
    x1        R16       3
    x1        R19       1
    x2        R0        -7
    x2        R1        3
    x2        R2        -1
    x2        R3        5
    x2        R4        -5
    x2        R5        1
    x2        R6        -1
    x2        R7        -1
    x2        R8        -1
    x2        R10       -1
    x2        R11       1
    x2        R14       1
    x2        R15       -1
    x2        R16       3
    x2        R17       1
    x2        R18       -1
    x2        R19       1
    x2        R20       -1
    x3        R0        -2
    x3        R1        2
    x3        R2        -2
    x3        R3        6
    x3        R4        -1
    x3        R6        -2
    x3        R7        1
    x3        R8        -1
    x3        R10       -1
    x3        R11       1
    x3        R12       -1
    x3        R14       1
    x3        R16       2
    x3        R17       -1
    x3        R20       -1
    x4        R21       -3
    x4        R22       1
    x4        R24       3
    x4        R25       -5
    x4        R26       1
    x4        R27       1
    x4        R28       1
    x4        R29       -2
    x4        R30       -1
    x4        R31       1
    x4        R32       2
    x4        R33       -1
    x4        R34       -1
    x4        R36       -1
    x4        R37       -1
    x4        R38       1
    x4        R40       1
    x4        R41       -1
    x5        R21       -6
    x5        R22       1
    x5        R24       3
    x5        R25       -1
    x5        R26       1
    x5        R27       1
    x5        R29       -1
    x5        R30       -1
    x5        R32       -1
    x5        R33       1
    x5        R34       -1
    x5        R35       1
    x5        R36       -2
    x5        R37       3
    x5        R40       1
    x6        R21       -7
    x6        R22       3
    x6        R23       -1
    x6        R24       5
    x6        R25       -5
    x6        R26       1
    x6        R27       -1
    x6        R28       -1
    x6        R29       -1
    x6        R31       -1
    x6        R32       1
    x6        R35       1
    x6        R36       -1
    x6        R37       3
    x6        R38       1
    x6        R39       -1
    x6        R40       1
    x6        R41       -1
    x7        R21       -2
    x7        R22       2
    x7        R23       -2
    x7        R24       6
    x7        R25       -1
    x7        R27       -2
    x7        R28       1
    x7        R29       -1
    x7        R31       -1
    x7        R32       1
    x7        R33       -1
    x7        R35       1
    x7        R37       2
    x7        R38       -1
    x7        R41       -1
    x8        R42       -3
    x8        R43       1
    x8        R45       3
    x8        R46       -5
    x8        R47       1
    x8        R48       1
    x8        R49       1
    x8        R50       -2
    x8        R51       -1
    x8        R52       1
    x8        R53       2
    x8        R54       -1
    x8        R55       -1
    x8        R57       -1
    x8        R58       -1
    x8        R59       1
    x8        R61       1
    x8        R62       -1
    x9        R42       -6
    x9        R43       1
    x9        R45       3
    x9        R46       -1
    x9        R47       1
    x9        R48       1
    x9        R50       -1
    x9        R51       -1
    x9        R53       -1
    x9        R54       1
    x9        R55       -1
    x9        R56       1
    x9        R57       -2
    x9        R58       3
    x9        R61       1
    x10       R42       -7
    x10       R43       3
    x10       R44       -1
    x10       R45       5
    x10       R46       -5
    x10       R47       1
    x10       R48       -1
    x10       R49       -1
    x10       R50       -1
    x10       R52       -1
    x10       R53       1
    x10       R56       1
    x10       R57       -1
    x10       R58       3
    x10       R59       1
    x10       R60       -1
    x10       R61       1
    x10       R62       -1
    x11       R42       -2
    x11       R43       2
    x11       R44       -2
    x11       R45       6
    x11       R46       -1
    x11       R48       -2
    x11       R49       1
    x11       R50       -1
    x11       R52       -1
    x11       R53       1
    x11       R54       -1
    x11       R56       1
    x11       R58       2
    x11       R59       -1
    x11       R62       -1
    x12       R63       -3
    x12       R64       1
    x12       R66       3
    x12       R67       -5
    x12       R68       1
    x12       R69       1
    x12       R70       1
    x12       R71       -2
    x12       R72       -1
    x12       R73       1
    x12       R74       2
    x12       R75       -1
    x12       R76       -1
    x12       R78       -1
    x12       R79       -1
    x12       R80       1
    x12       R82       1
    x12       R83       -1
    x13       R63       -6
    x13       R64       1
    x13       R66       3
    x13       R67       -1
    x13       R68       1
    x13       R69       1
    x13       R71       -1
    x13       R72       -1
    x13       R74       -1
    x13       R75       1
    x13       R76       -1
    x13       R77       1
    x13       R78       -2
    x13       R79       3
    x13       R82       1
    x14       R63       -7
    x14       R64       3
    x14       R65       -1
    x14       R66       5
    x14       R67       -5
    x14       R68       1
    x14       R69       -1
    x14       R70       -1
    x14       R71       -1
    x14       R73       -1
    x14       R74       1
    x14       R77       1
    x14       R78       -1
    x14       R79       3
    x14       R80       1
    x14       R81       -1
    x14       R82       1
    x14       R83       -1
    x15       R63       -2
    x15       R64       2
    x15       R65       -2
    x15       R66       6
    x15       R67       -1
    x15       R69       -2
    x15       R70       1
    x15       R71       -1
    x15       R73       -1
    x15       R74       1
    x15       R75       -1
    x15       R77       1
    x15       R79       2
    x15       R80       -1
    x15       R83       -1
    k0        R100      1
    k1        R101      1
    k2        R102      1
    k3        R103      1
    k4        R104      1
    k5        R105      1
    k6        R106      1
    k7        R107      1
    k8        R108      1
    k9        R109      1
    k10       R110      1
    k11       R111      1
    k12       R112      1
    k13       R113      1
    k14       R114      1
    k15       R115      1
    y0        R84       1
    y0        R100      1
    y1        R85       1
    y1        R101      1
    y2        R86       1
    y2        R102      1
    y3        R87       1
    y3        R103      1
    y4        R88       1
    y4        R104      1
    y5        R89       1
    y5        R105      1
    y6        R90       1
    y6        R106      1
    y7        R91       1
    y7        R107      1
    y8        R92       1
    y8        R108      1
    y9        R93       1
    y9        R109      1
    y10       R94       1
    y10       R110      1
    y11       R95       1
    y11       R111      1
    y12       R96       1
    y12       R112      1
    y13       R97       1
    y13       R113      1
    y14       R98       1
    y14       R114      1
    y15       R99       1
    y15       R115      1
    z0        R100      -1
    z0        R116      5
    z0        R117      -4
    z0        R118      2
    z0        R119      -2
    z0        R120      4
    z0        R122      2
    z0        R123      -1
    z0        R125      1
    z0        R127      -3
    z0        R128      -1
    z0        R130      -2
    z0        R131      1
    z0        R132      -2
    z0        R134      1
    z0        R136      2
    z1        R101      -1
    z1        R116      4
    z1        R117      -5
    z1        R118      1
    z1        R119      -1
    z1        R121      -1
    z1        R122      1
    z1        R125      1
    z1        R126      -1
    z1        R127      -2
    z1        R129      1
    z1        R130      -2
    z1        R132      -1
    z1        R134      1
    z1        R135      1
    z2        R102      -1
    z2        R116      10
    z2        R117      -3
    z2        R118      1
    z2        R119      -1
    z2        R120      3
    z2        R121      -1
    z2        R122      -1
    z2        R124      3
    z2        R127      -3
    z2        R128      -1
    z2        R129      1
    z2        R130      -1
    z2        R131      2
    z2        R132      -3
    z2        R133      -1
    z2        R134      1
    z2        R135      1
    z3        R103      -1
    z3        R116      4
    z3        R117      -3
    z3        R118      1
    z3        R119      -3
    z3        R120      2
    z3        R121      1
    z3        R122      -1
    z3        R123      1
    z3        R124      2
    z3        R126      -1
    z3        R127      -2
    z3        R128      -1
    z3        R130      -2
    z3        R131      2
    z3        R132      -1
    z3        R133      1
    z3        R135      -1
    z3        R136      1
    z4        R104      -1
    z4        R137      5
    z4        R138      -4
    z4        R139      2
    z4        R140      -2
    z4        R141      4
    z4        R143      2
    z4        R144      -1
    z4        R146      1
    z4        R148      -3
    z4        R149      -1
    z4        R151      -2
    z4        R152      1
    z4        R153      -2
    z4        R155      1
    z4        R157      2
    z5        R105      -1
    z5        R137      4
    z5        R138      -5
    z5        R139      1
    z5        R140      -1
    z5        R142      -1
    z5        R143      1
    z5        R146      1
    z5        R147      -1
    z5        R148      -2
    z5        R150      1
    z5        R151      -2
    z5        R153      -1
    z5        R155      1
    z5        R156      1
    z6        R106      -1
    z6        R137      10
    z6        R138      -3
    z6        R139      1
    z6        R140      -1
    z6        R141      3
    z6        R142      -1
    z6        R143      -1
    z6        R145      3
    z6        R148      -3
    z6        R149      -1
    z6        R150      1
    z6        R151      -1
    z6        R152      2
    z6        R153      -3
    z6        R154      -1
    z6        R155      1
    z6        R156      1
    z7        R107      -1
    z7        R137      4
    z7        R138      -3
    z7        R139      1
    z7        R140      -3
    z7        R141      2
    z7        R142      1
    z7        R143      -1
    z7        R144      1
    z7        R145      2
    z7        R147      -1
    z7        R148      -2
    z7        R149      -1
    z7        R151      -2
    z7        R152      2
    z7        R153      -1
    z7        R154      1
    z7        R156      -1
    z7        R157      1
    z8        R108      -1
    z8        R158      5
    z8        R159      -4
    z8        R160      2
    z8        R161      -2
    z8        R162      4
    z8        R164      2
    z8        R165      -1
    z8        R167      1
    z8        R169      -3
    z8        R170      -1
    z8        R172      -2
    z8        R173      1
    z8        R174      -2
    z8        R176      1
    z8        R178      2
    z9        R109      -1
    z9        R158      4
    z9        R159      -5
    z9        R160      1
    z9        R161      -1
    z9        R163      -1
    z9        R164      1
    z9        R167      1
    z9        R168      -1
    z9        R169      -2
    z9        R171      1
    z9        R172      -2
    z9        R174      -1
    z9        R176      1
    z9        R177      1
    z10       R110      -1
    z10       R158      10
    z10       R159      -3
    z10       R160      1
    z10       R161      -1
    z10       R162      3
    z10       R163      -1
    z10       R164      -1
    z10       R166      3
    z10       R169      -3
    z10       R170      -1
    z10       R171      1
    z10       R172      -1
    z10       R173      2
    z10       R174      -3
    z10       R175      -1
    z10       R176      1
    z10       R177      1
    z11       R111      -1
    z11       R158      4
    z11       R159      -3
    z11       R160      1
    z11       R161      -3
    z11       R162      2
    z11       R163      1
    z11       R164      -1
    z11       R165      1
    z11       R166      2
    z11       R168      -1
    z11       R169      -2
    z11       R170      -1
    z11       R172      -2
    z11       R173      2
    z11       R174      -1
    z11       R175      1
    z11       R177      -1
    z11       R178      1
    z12       R112      -1
    z12       R179      5
    z12       R180      -4
    z12       R181      2
    z12       R182      -2
    z12       R183      4
    z12       R185      2
    z12       R186      -1
    z12       R188      1
    z12       R190      -3
    z12       R191      -1
    z12       R193      -2
    z12       R194      1
    z12       R195      -2
    z12       R197      1
    z12       R199      2
    z13       R113      -1
    z13       R179      4
    z13       R180      -5
    z13       R181      1
    z13       R182      -1
    z13       R184      -1
    z13       R185      1
    z13       R188      1
    z13       R189      -1
    z13       R190      -2
    z13       R192      1
    z13       R193      -2
    z13       R195      -1
    z13       R197      1
    z13       R198      1
    z14       R114      -1
    z14       R179      10
    z14       R180      -3
    z14       R181      1
    z14       R182      -1
    z14       R183      3
    z14       R184      -1
    z14       R185      -1
    z14       R187      3
    z14       R190      -3
    z14       R191      -1
    z14       R192      1
    z14       R193      -1
    z14       R194      2
    z14       R195      -3
    z14       R196      -1
    z14       R197      1
    z14       R198      1
    z15       R115      -1
    z15       R179      4
    z15       R180      -3
    z15       R181      1
    z15       R182      -3
    z15       R183      2
    z15       R184      1
    z15       R185      -1
    z15       R186      1
    z15       R187      2
    z15       R189      -1
    z15       R190      -2
    z15       R191      -1
    z15       R193      -2
    z15       R194      2
    z15       R195      -1
    z15       R196      1
    z15       R198      -1
    z15       R199      1
    v0        R116      -3
    v0        R117      1
    v0        R119      3
    v0        R120      -5
    v0        R121      1
    v0        R122      1
    v0        R123      1
    v0        R124      -2
    v0        R125      -1
    v0        R126      1
    v0        R127      2
    v0        R128      -1
    v0        R129      -1
    v0        R131      -1
    v0        R132      -1
    v0        R133      1
    v0        R135      1
    v0        R136      -1
    v1        R116      -6
    v1        R117      1
    v1        R119      3
    v1        R120      -1
    v1        R121      1
    v1        R122      1
    v1        R124      -1
    v1        R125      -1
    v1        R127      -1
    v1        R128      1
    v1        R129      -1
    v1        R130      1
    v1        R131      -2
    v1        R132      3
    v1        R135      1
    v2        R116      -7
    v2        R117      3
    v2        R118      -1
    v2        R119      5
    v2        R120      -5
    v2        R121      1
    v2        R122      -1
    v2        R123      -1
    v2        R124      -1
    v2        R126      -1
    v2        R127      1
    v2        R130      1
    v2        R131      -1
    v2        R132      3
    v2        R133      1
    v2        R134      -1
    v2        R135      1
    v2        R136      -1
    v3        R116      -2
    v3        R117      2
    v3        R118      -2
    v3        R119      6
    v3        R120      -1
    v3        R122      -2
    v3        R123      1
    v3        R124      -1
    v3        R126      -1
    v3        R127      1
    v3        R128      -1
    v3        R130      1
    v3        R132      2
    v3        R133      -1
    v3        R136      -1
    v4        R137      -3
    v4        R138      1
    v4        R140      3
    v4        R141      -5
    v4        R142      1
    v4        R143      1
    v4        R144      1
    v4        R145      -2
    v4        R146      -1
    v4        R147      1
    v4        R148      2
    v4        R149      -1
    v4        R150      -1
    v4        R152      -1
    v4        R153      -1
    v4        R154      1
    v4        R156      1
    v4        R157      -1
    v5        R137      -6
    v5        R138      1
    v5        R140      3
    v5        R141      -1
    v5        R142      1
    v5        R143      1
    v5        R145      -1
    v5        R146      -1
    v5        R148      -1
    v5        R149      1
    v5        R150      -1
    v5        R151      1
    v5        R152      -2
    v5        R153      3
    v5        R156      1
    v6        R137      -7
    v6        R138      3
    v6        R139      -1
    v6        R140      5
    v6        R141      -5
    v6        R142      1
    v6        R143      -1
    v6        R144      -1
    v6        R145      -1
    v6        R147      -1
    v6        R148      1
    v6        R151      1
    v6        R152      -1
    v6        R153      3
    v6        R154      1
    v6        R155      -1
    v6        R156      1
    v6        R157      -1
    v7        R137      -2
    v7        R138      2
    v7        R139      -2
    v7        R140      6
    v7        R141      -1
    v7        R143      -2
    v7        R144      1
    v7        R145      -1
    v7        R147      -1
    v7        R148      1
    v7        R149      -1
    v7        R151      1
    v7        R153      2
    v7        R154      -1
    v7        R157      -1
    v8        R158      -3
    v8        R159      1
    v8        R161      3
    v8        R162      -5
    v8        R163      1
    v8        R164      1
    v8        R165      1
    v8        R166      -2
    v8        R167      -1
    v8        R168      1
    v8        R169      2
    v8        R170      -1
    v8        R171      -1
    v8        R173      -1
    v8        R174      -1
    v8        R175      1
    v8        R177      1
    v8        R178      -1
    v9        R158      -6
    v9        R159      1
    v9        R161      3
    v9        R162      -1
    v9        R163      1
    v9        R164      1
    v9        R166      -1
    v9        R167      -1
    v9        R169      -1
    v9        R170      1
    v9        R171      -1
    v9        R172      1
    v9        R173      -2
    v9        R174      3
    v9        R177      1
    v10       R158      -7
    v10       R159      3
    v10       R160      -1
    v10       R161      5
    v10       R162      -5
    v10       R163      1
    v10       R164      -1
    v10       R165      -1
    v10       R166      -1
    v10       R168      -1
    v10       R169      1
    v10       R172      1
    v10       R173      -1
    v10       R174      3
    v10       R175      1
    v10       R176      -1
    v10       R177      1
    v10       R178      -1
    v11       R158      -2
    v11       R159      2
    v11       R160      -2
    v11       R161      6
    v11       R162      -1
    v11       R164      -2
    v11       R165      1
    v11       R166      -1
    v11       R168      -1
    v11       R169      1
    v11       R170      -1
    v11       R172      1
    v11       R174      2
    v11       R175      -1
    v11       R178      -1
    v12       R179      -3
    v12       R180      1
    v12       R182      3
    v12       R183      -5
    v12       R184      1
    v12       R185      1
    v12       R186      1
    v12       R187      -2
    v12       R188      -1
    v12       R189      1
    v12       R190      2
    v12       R191      -1
    v12       R192      -1
    v12       R194      -1
    v12       R195      -1
    v12       R196      1
    v12       R198      1
    v12       R199      -1
    v13       R179      -6
    v13       R180      1
    v13       R182      3
    v13       R183      -1
    v13       R184      1
    v13       R185      1
    v13       R187      -1
    v13       R188      -1
    v13       R190      -1
    v13       R191      1
    v13       R192      -1
    v13       R193      1
    v13       R194      -2
    v13       R195      3
    v13       R198      1
    v14       R179      -7
    v14       R180      3
    v14       R181      -1
    v14       R182      5
    v14       R183      -5
    v14       R184      1
    v14       R185      -1
    v14       R186      -1
    v14       R187      -1
    v14       R189      -1
    v14       R190      1
    v14       R193      1
    v14       R194      -1
    v14       R195      3
    v14       R196      1
    v14       R197      -1
    v14       R198      1
    v14       R199      -1
    v15       R179      -2
    v15       R180      2
    v15       R181      -2
    v15       R182      6
    v15       R183      -1
    v15       R185      -2
    v15       R186      1
    v15       R187      -1
    v15       R189      -1
    v15       R190      1
    v15       R191      -1
    v15       R193      1
    v15       R195      2
    v15       R196      -1
    v15       R199      -1
    t_0_0     R84       -1
    t_1_5     R85       -1
    t_2_10    R86       -1
    t_3_15    R87       -1
    t_4_12    R88       -1
    t_5_1     R89       -1
    t_6_6     R90       -1
    t_7_11    R91       -1
    t_8_8     R92       -1
    t_9_13    R93       -1
    t_10_2    R94       -1
    t_11_7    R95       -1
    t_12_4    R96       -1
    t_13_9    R97       -1
    t_14_14   R98       -1
    t_15_3    R99       -1
    MARKER    'MARKER'                 'INTEND'
RHS
    RHS1      R0        -3
    RHS1      R1        -8
    RHS1      R4        -5
    RHS1      R6        -2
    RHS1      R7        -1
    RHS1      R8        -2
    RHS1      R9        -1
    RHS1      R10       -3
    RHS1      R11       -7
    RHS1      R12       -4
    RHS1      R13       -1
    RHS1      R14       -4
    RHS1      R15       -1
    RHS1      R16       -4
    RHS1      R17       -1
    RHS1      R20       -1
    RHS1      R21       -3
    RHS1      R22       -8
    RHS1      R25       -5
    RHS1      R27       -2
    RHS1      R28       -1
    RHS1      R29       -2
    RHS1      R30       -1
    RHS1      R31       -3
    RHS1      R32       -7
    RHS1      R33       -4
    RHS1      R34       -1
    RHS1      R35       -4
    RHS1      R36       -1
    RHS1      R37       -4
    RHS1      R38       -1
    RHS1      R41       -1
    RHS1      R42       -3
    RHS1      R43       -8
    RHS1      R46       -5
    RHS1      R48       -2
    RHS1      R49       -1
    RHS1      R50       -2
    RHS1      R51       -1
    RHS1      R52       -3
    RHS1      R53       -7
    RHS1      R54       -4
    RHS1      R55       -1
    RHS1      R56       -4
    RHS1      R57       -1
    RHS1      R58       -4
    RHS1      R59       -1
    RHS1      R62       -1
    RHS1      R63       -3
    RHS1      R64       -8
    RHS1      R67       -5
    RHS1      R69       -2
    RHS1      R70       -1
    RHS1      R71       -2
    RHS1      R72       -1
    RHS1      R73       -3
    RHS1      R74       -7
    RHS1      R75       -4
    RHS1      R76       -1
    RHS1      R77       -4
    RHS1      R78       -1
    RHS1      R79       -4
    RHS1      R80       -1
    RHS1      R83       -1
    RHS1      R116      -3
    RHS1      R117      -8
    RHS1      R120      -5
    RHS1      R122      -2
    RHS1      R123      -1
    RHS1      R124      -2
    RHS1      R125      -1
    RHS1      R126      -3
    RHS1      R127      -7
    RHS1      R128      -4
    RHS1      R129      -1
    RHS1      R130      -4
    RHS1      R131      -1
    RHS1      R132      -4
    RHS1      R133      -1
    RHS1      R136      -1
    RHS1      R137      -3
    RHS1      R138      -8
    RHS1      R141      -5
    RHS1      R143      -2
    RHS1      R144      -1
    RHS1      R145      -2
    RHS1      R146      -1
    RHS1      R147      -3
    RHS1      R148      -7
    RHS1      R149      -4
    RHS1      R150      -1
    RHS1      R151      -4
    RHS1      R152      -1
    RHS1      R153      -4
    RHS1      R154      -1
    RHS1      R157      -1
    RHS1      R158      -3
    RHS1      R159      -8
    RHS1      R162      -5
    RHS1      R164      -2
    RHS1      R165      -1
    RHS1      R166      -2
    RHS1      R167      -1
    RHS1      R168      -3
    RHS1      R169      -7
    RHS1      R170      -4
    RHS1      R171      -1
    RHS1      R172      -4
    RHS1      R173      -1
    RHS1      R174      -4
    RHS1      R175      -1
    RHS1      R178      -1
    RHS1      R179      -3
    RHS1      R180      -8
    RHS1      R183      -5
    RHS1      R185      -2
    RHS1      R186      -1
    RHS1      R187      -2
    RHS1      R188      -1
    RHS1      R189      -3
    RHS1      R190      -7
    RHS1      R191      -4
    RHS1      R192      -1
    RHS1      R193      -4
    RHS1      R194      -1
    RHS1      R195      -4
    RHS1      R196      -1
    RHS1      R199      -1
BOUNDS
 BV BND1      u0      
 BV BND1      u1      
 BV BND1      u2      
 BV BND1      u3      
 BV BND1      u4      
 BV BND1      u5      
 BV BND1      u6      
 BV BND1      u7      
 BV BND1      u8      
 BV BND1      u9      
 BV BND1      u10     
 BV BND1      u11     
 BV BND1      u12     
 BV BND1      u13     
 BV BND1      u14     
 BV BND1      u15     
 BV BND1      x0      
 BV BND1      x1      
 BV BND1      x2      
 BV BND1      x3      
 BV BND1      x4      
 BV BND1      x5      
 BV BND1      x6      
 BV BND1      x7      
 BV BND1      x8      
 BV BND1      x9      
 BV BND1      x10     
 BV BND1      x11     
 BV BND1      x12     
 BV BND1      x13     
 BV BND1      x14     
 BV BND1      x15     
 BV BND1      k0      
 BV BND1      k1      
 BV BND1      k2      
 BV BND1      k3      
 BV BND1      k4      
 BV BND1      k5      
 BV BND1      k6      
 BV BND1      k7      
 BV BND1      k8      
 BV BND1      k9      
 BV BND1      k10     
 BV BND1      k11     
 BV BND1      k12     
 BV BND1      k13     
 BV BND1      k14     
 BV BND1      k15     
 BV BND1      y0      
 BV BND1      y1      
 BV BND1      y2      
 BV BND1      y3      
 BV BND1      y4      
 BV BND1      y5      
 BV BND1      y6      
 BV BND1      y7      
 BV BND1      y8      
 BV BND1      y9      
 BV BND1      y10     
 BV BND1      y11     
 BV BND1      y12     
 BV BND1      y13     
 BV BND1      y14     
 BV BND1      y15     
 BV BND1      z0      
 BV BND1      z1      
 BV BND1      z2      
 BV BND1      z3      
 BV BND1      z4      
 BV BND1      z5      
 BV BND1      z6      
 BV BND1      z7      
 BV BND1      z8      
 BV BND1      z9      
 BV BND1      z10     
 BV BND1      z11     
 BV BND1      z12     
 BV BND1      z13     
 BV BND1      z14     
 BV BND1      z15     
 BV BND1      v0      
 BV BND1      v1      
 BV BND1      v2      
 BV BND1      v3      
 BV BND1      v4      
 BV BND1      v5      
 BV BND1      v6      
 BV BND1      v7      
 BV BND1      v8      
 BV BND1      v9      
 BV BND1      v10     
 BV BND1      v11     
 BV BND1      v12     
 BV BND1      v13     
 BV BND1      v14     
 BV BND1      v15     
 BV BND1      t_0_0   
 BV BND1      t_1_5   
 BV BND1      t_2_10  
 BV BND1      t_3_15  
 BV BND1      t_4_12  
 BV BND1      t_5_1   
 BV BND1      t_6_6   
 BV BND1      t_7_11  
 BV BND1      t_8_8   
 BV BND1      t_9_13  
 BV BND1      t_10_2  
 BV BND1      t_11_7  
 BV BND1      t_12_4  
 BV BND1      t_13_9  
 BV BND1      t_14_14 
 BV BND1      t_15_3  
GENCONS
 OR GC0
    x0
    t_0_0
 OR GC1
    x1
    t_5_1
 OR GC2
    x2
    t_10_2
 OR GC3
    x3
    t_15_3
 OR GC4
    x4
    t_12_4
 OR GC5
    x5
    t_1_5
 OR GC6
    x6
    t_6_6
 OR GC7
    x7
    t_11_7
 OR GC8
    x8
    t_8_8
 OR GC9
    x9
    t_13_9
 OR GC10
    x10
    t_2_10
 OR GC11
    x11
    t_7_11
 OR GC12
    x12
    t_4_12
 OR GC13
    x13
    t_9_13
 OR GC14
    x14
    t_14_14
 OR GC15
    x15
    t_3_15
ENDATA
